Maximize
F - f1 - f2

Subject to
F - 10.0y75 - 20.0y15 - 20.0y34 - 10.0y153 - 15.0y185 - 20.0y88 - 20.0y224 - 15.0y18 - 10.0y302 - 5.0y83 - 10.0y163 - 20.0y43 - 15.0y139 - 10.0y300 - 5.0y213 - 5.0y131 - 15.0y198 - 10.0y233 - 10.0y56 - 5.0y66 - 5.0y2 - 5.0y184 - 10.0y89 - 10.0y221 - 15.0y239 - 20.0y39 - 20.0y237 - 20.0y339 - 15.0y150 - 5.0y106 - 10.0y332 = 0
f1 - 0.003865s75 - 0.003865s15 - 0.003865s34 - 0.003865s153 - 0.003865s185 - 0.003865s88 - 0.003865s224 - 0.003865s18 - 0.003865s302 - 0.003865s83 - 0.003865s163 - 0.003865s43 - 0.003865s139 - 0.003865s300 - 0.003865s213 - 0.003865s131 - 0.003865s198 - 0.003865s233 - 0.003865s56 - 0.003865s66 - 0.003865s2 - 0.003865s184 - 0.003865s89 - 0.003865s221 - 0.003865s239 - 0.003865s39 - 0.003865s237 - 0.003865s339 - 0.003865s150 - 0.003865s106 - 0.003865s332  = 0
f2 - 0.07y75 - 0.03y15 - 0.08y34 - 0.19y153 - 0.48y185 - 0.08y88 - 0.02y224 - 0.54y18 - 0.04y302 - 0.13y83 - 0.17y163 - 0.15y43 - 0.63y139 - 0.67y300 - 0.64y213 - 0.65y131 - 0.68y198 - 0.67y233 - 0.69y56 - 0.16y66 - 0.78y2 - 0.29y184 - 0.04y89 - 0.78y221 - 0.68y239 - 0.60y39 - 0.91y237 - 0.22y339 - 0.90y150 - 0.96y106 - 0.87y332 = 0

x200x213x1 + x200x131x1 + x200x198x1 + x200x56x1 + x200x2x1 + x200x239x1 + x200x237x1 + x200x150x1 
<= 1
x177x150x1 
<= 1
x148x237x1 + x148x150x1 
<= 1
x144x88x2 + x144x163x2 + x144x43x2 + x144x300x2 + x144x213x2 + x144x56x2 + x144x66x2 + x144x184x2 + x144x89x2 + x144x221x2 + x144x39x2 + x144x339x2 + x144x106x2 + x144x332x2 
<= 1
x200x88x2 + x200x163x2 + x200x43x2 + x200x213x2 + x200x56x2 + x200x221x2 + x200x39x2 + x200x339x2 + x200x106x2 + x200x332x2 
<= 1
x32x34x2 + x32x88x2 + x32x302x2 + x32x163x2 + x32x43x2 + x32x300x2 + x32x213x2 + x32x56x2 + x32x66x2 + x32x184x2 + x32x89x2 + x32x221x2 + x32x39x2 + x32x339x2 + x32x106x2 + x32x332x2 
<= 2
x147x221x2 + x147x339x2 + x147x106x2 + x147x332x2 
<= 1
x317x300x2 + x317x213x2 + x317x56x2 + x317x66x2 + x317x184x2 + x317x89x2 + x317x221x2 + x317x39x2 + x317x339x2 + x317x106x2 + x317x332x2 
<= 2
x28x75x3 + x28x153x3 + x28x88x3 + x28x18x3 + x28x302x3 + x28x43x3 + x28x139x3 + x28x131x3 + x28x198x3 + x28x233x3 + x28x2x3 + x28x339x3 + x28x106x3 + x28x332x3 
<= 2
x147x339x3 + x147x106x3 + x147x332x3 
<= 1
x177x339x3 + x177x106x3 
<= 1
x67x106x3 
<= 2
x148x106x3 + x148x332x3 
<= 1
x92x106x3 
<= 1


x28x75x3 
- x75x0x3
- x75x88x3 - x75x43x3 - x75x339x3 - x75x106x3 - x75x332x3 
= 0


- x15x224x1 - x15x83x1 - x15x213x1 - x15x198x1 - x15x56x1 - x15x2x1 - x15x184x1 - x15x239x1 - x15x237x1 - x15x150x1 
= 0




x32x34x2 
- x34x0x2
- x34x302x2 - x34x300x2 - x34x213x2 - x34x56x2 - x34x66x2 - x34x184x2 - x34x89x2 - x34x221x2 - x34x39x2 - x34x106x2 - x34x332x2 
= 0




x28x153x3 
- x153x0x3
- x153x302x3 - x153x2x3 - x153x106x3 - x153x332x3 
= 0


- x185x18x1 - x185x213x1 - x185x131x1 - x185x198x1 - x185x56x1 - x185x239x1 - x185x237x1 - x185x150x1 
= 0




x144x88x2 + x200x88x2 + x32x88x2 
- x88x0x2
- x88x163x2 - x88x43x2 - x88x339x2 - x88x106x2 
= 0
x28x88x3 + x75x88x3 
- x88x0x3
- x88x43x3 - x88x339x3 - x88x106x3 
= 0

x15x224x1 
- x224x0x1
- x224x83x1 - x224x2x1 - x224x184x1 - x224x239x1 - x224x237x1 - x224x150x1 
= 0



x185x18x1 
- x18x0x1
- x18x213x1 - x18x131x1 - x18x198x1 - x18x56x1 - x18x150x1 
= 0

x28x18x3 
- x18x0x3
- x18x139x3 - x18x131x3 - x18x198x3 - x18x233x3 - x18x106x3 - x18x332x3 
= 0


x32x302x2 + x34x302x2 
- x302x0x2
- x302x66x2 - x302x184x2 - x302x89x2 - x302x39x2 - x302x106x2 - x302x332x2 
= 0
x28x302x3 + x153x302x3 
- x302x0x3
- x302x2x3 - x302x106x3 - x302x332x3 
= 0

x15x83x1 + x224x83x1 
- x83x0x1
- x83x184x1 - x83x239x1 - x83x237x1 - x83x150x1 
= 0




x144x163x2 + x200x163x2 + x32x163x2 + x88x163x2 
- x163x0x2
- x163x43x2 - x163x339x2 - x163x106x2 
= 0



x144x43x2 + x200x43x2 + x32x43x2 + x88x43x2 + x163x43x2 
- x43x0x2
- x43x339x2 
= 0
x28x43x3 + x75x43x3 + x88x43x3 
- x43x0x3
- x43x339x3 
= 0



x28x139x3 + x18x139x3 
- x139x0x3
- x139x198x3 - x139x233x3 - x139x106x3 - x139x332x3 
= 0


x144x300x2 + x32x300x2 + x317x300x2 + x34x300x2 
- x300x0x2
- x300x39x2 - x300x332x2 
= 0


x200x213x1 + x15x213x1 + x185x213x1 + x18x213x1 
- x213x0x1
- x213x56x1 - x213x150x1 
= 0
x144x213x2 + x200x213x2 + x32x213x2 + x317x213x2 + x34x213x2 
- x213x0x2
- x213x56x2 - x213x221x2 - x213x106x2 - x213x332x2 
= 0


x200x131x1 + x185x131x1 + x18x131x1 
- x131x0x1
- x131x150x1 
= 0

x28x131x3 + x18x131x3 
- x131x0x3
- x131x106x3 - x131x332x3 
= 0

x200x198x1 + x15x198x1 + x185x198x1 + x18x198x1 
- x198x0x1
- x198x150x1 
= 0

x28x198x3 + x18x198x3 + x139x198x3 
- x198x0x3
- x198x106x3 - x198x332x3 
= 0



x28x233x3 + x18x233x3 + x139x233x3 
- x233x0x3
- x233x106x3 - x233x332x3 
= 0

x200x56x1 + x15x56x1 + x185x56x1 + x18x56x1 + x213x56x1 
- x56x0x1
- x56x150x1 
= 0
x144x56x2 + x200x56x2 + x32x56x2 + x317x56x2 + x34x56x2 + x213x56x2 
- x56x0x2
- x56x221x2 - x56x106x2 - x56x332x2 
= 0



x144x66x2 + x32x66x2 + x317x66x2 + x34x66x2 + x302x66x2 
- x66x0x2
- x66x89x2 - x66x39x2 - x66x332x2 
= 0


x200x2x1 + x15x2x1 + x224x2x1 
- x2x0x1
- x2x239x1 - x2x237x1 
= 0

x28x2x3 + x153x2x3 + x302x2x3 
- x2x0x3

= 0

x15x184x1 + x224x184x1 + x83x184x1 
- x184x0x1
- x184x239x1 - x184x237x1 
= 0
x144x184x2 + x32x184x2 + x317x184x2 + x34x184x2 + x302x184x2 
- x184x0x2
- x184x39x2 - x184x332x2 
= 0



x144x89x2 + x32x89x2 + x317x89x2 + x34x89x2 + x302x89x2 + x66x89x2 
- x89x0x2
- x89x332x2 
= 0



x144x221x2 + x200x221x2 + x32x221x2 + x147x221x2 + x317x221x2 + x34x221x2 + x213x221x2 + x56x221x2 
- x221x0x2
- x221x106x2 
= 0


x200x239x1 + x15x239x1 + x185x239x1 + x224x239x1 + x83x239x1 + x2x239x1 + x184x239x1 
- x239x0x1
- x239x237x1 
= 0




x144x39x2 + x200x39x2 + x32x39x2 + x317x39x2 + x34x39x2 + x302x39x2 + x300x39x2 + x66x39x2 + x184x39x2 
- x39x0x2

= 0


x200x237x1 + x148x237x1 + x15x237x1 + x185x237x1 + x224x237x1 + x83x237x1 + x2x237x1 + x184x237x1 + x239x237x1 
- x237x0x1

= 0




x144x339x2 + x200x339x2 + x32x339x2 + x147x339x2 + x317x339x2 + x88x339x2 + x163x339x2 + x43x339x2 
- x339x0x2

= 0
x28x339x3 + x147x339x3 + x177x339x3 + x75x339x3 + x88x339x3 + x43x339x3 
- x339x0x3

= 0

x200x150x1 + x177x150x1 + x148x150x1 + x15x150x1 + x185x150x1 + x224x150x1 + x18x150x1 + x83x150x1 + x213x150x1 + x131x150x1 + x198x150x1 + x56x150x1 
- x150x0x1

= 0




x144x106x2 + x200x106x2 + x32x106x2 + x147x106x2 + x317x106x2 + x34x106x2 + x88x106x2 + x302x106x2 + x163x106x2 + x213x106x2 + x56x106x2 + x221x106x2 
- x106x0x2

= 0
x28x106x3 + x147x106x3 + x177x106x3 + x67x106x3 + x148x106x3 + x92x106x3 + x75x106x3 + x153x106x3 + x88x106x3 + x18x106x3 + x302x106x3 + x139x106x3 + x131x106x3 + x198x106x3 + x233x106x3 
- x106x0x3

= 0


x144x332x2 + x200x332x2 + x32x332x2 + x147x332x2 + x317x332x2 + x34x332x2 + x302x332x2 + x300x332x2 + x213x332x2 + x56x332x2 + x66x332x2 + x184x332x2 + x89x332x2 
- x332x0x2

= 0
x28x332x3 + x147x332x3 + x148x332x3 + x75x332x3 + x153x332x3 + x18x332x3 + x302x332x3 + x139x332x3 + x131x332x3 + x198x332x3 + x233x332x3 
- x332x0x3

= 0

2y75 - x28x75x3 = 0
2y15 = 0
2y34 - x32x34x2 = 0
2y153 - x28x153x3 = 0
2y185 = 0
1y88 - x144x88x2 - x200x88x2 - x32x88x2 = 0
1y88 - x28x88x3 - x75x88x3 = 0
2y224 - x15x224x1 = 0
1y18 - x185x18x1 = 0
1y18 - x28x18x3 = 0
1y302 - x32x302x2 - x34x302x2 = 0
1y302 - x28x302x3 - x153x302x3 = 0
2y83 - x15x83x1 - x224x83x1 = 0
2y163 - x144x163x2 - x200x163x2 - x32x163x2 - x88x163x2 = 0
1y43 - x144x43x2 - x200x43x2 - x32x43x2 - x88x43x2 - x163x43x2 = 0
1y43 - x28x43x3 - x75x43x3 - x88x43x3 = 0
2y139 - x28x139x3 - x18x139x3 = 0
2y300 - x144x300x2 - x32x300x2 - x317x300x2 - x34x300x2 = 0
1y213 - x200x213x1 - x15x213x1 - x185x213x1 - x18x213x1 = 0
1y213 - x144x213x2 - x200x213x2 - x32x213x2 - x317x213x2 - x34x213x2 = 0
1y131 - x200x131x1 - x185x131x1 - x18x131x1 = 0
1y131 - x28x131x3 - x18x131x3 = 0
1y198 - x200x198x1 - x15x198x1 - x185x198x1 - x18x198x1 = 0
1y198 - x28x198x3 - x18x198x3 - x139x198x3 = 0
2y233 - x28x233x3 - x18x233x3 - x139x233x3 = 0
1y56 - x200x56x1 - x15x56x1 - x185x56x1 - x18x56x1 - x213x56x1 = 0
1y56 - x144x56x2 - x200x56x2 - x32x56x2 - x317x56x2 - x34x56x2 - x213x56x2 = 0
2y66 - x144x66x2 - x32x66x2 - x317x66x2 - x34x66x2 - x302x66x2 = 0
1y2 - x200x2x1 - x15x2x1 - x224x2x1 = 0
1y2 - x28x2x3 - x153x2x3 - x302x2x3 = 0
1y184 - x15x184x1 - x224x184x1 - x83x184x1 = 0
1y184 - x144x184x2 - x32x184x2 - x317x184x2 - x34x184x2 - x302x184x2 = 0
2y89 - x144x89x2 - x32x89x2 - x317x89x2 - x34x89x2 - x302x89x2 - x66x89x2 = 0
2y221 - x144x221x2 - x200x221x2 - x32x221x2 - x147x221x2 - x317x221x2 - x34x221x2 - x213x221x2 - x56x221x2 = 0
2y239 - x200x239x1 - x15x239x1 - x185x239x1 - x224x239x1 - x83x239x1 - x2x239x1 - x184x239x1 = 0
2y39 - x144x39x2 - x200x39x2 - x32x39x2 - x317x39x2 - x34x39x2 - x302x39x2 - x300x39x2 - x66x39x2 - x184x39x2 = 0
2y237 - x200x237x1 - x148x237x1 - x15x237x1 - x185x237x1 - x224x237x1 - x83x237x1 - x2x237x1 - x184x237x1 - x239x237x1 = 0
1y339 - x144x339x2 - x200x339x2 - x32x339x2 - x147x339x2 - x317x339x2 - x88x339x2 - x163x339x2 - x43x339x2 = 0
1y339 - x28x339x3 - x147x339x3 - x177x339x3 - x75x339x3 - x88x339x3 - x43x339x3 = 0
2y150 - x200x150x1 - x177x150x1 - x148x150x1 - x15x150x1 - x185x150x1 - x224x150x1 - x18x150x1 - x83x150x1 - x213x150x1 - x131x150x1 - x198x150x1 - x56x150x1 = 0
1y106 - x144x106x2 - x200x106x2 - x32x106x2 - x147x106x2 - x317x106x2 - x34x106x2 - x88x106x2 - x302x106x2 - x163x106x2 - x213x106x2 - x56x106x2 - x221x106x2 = 0
1y106 - x28x106x3 - x147x106x3 - x177x106x3 - x67x106x3 - x148x106x3 - x92x106x3 - x75x106x3 - x153x106x3 - x88x106x3 - x18x106x3 - x302x106x3 - x139x106x3 - x131x106x3 - x198x106x3 - x233x106x3 = 0
1y332 - x144x332x2 - x200x332x2 - x32x332x2 - x147x332x2 - x317x332x2 - x34x332x2 - x302x332x2 - x300x332x2 - x213x332x2 - x56x332x2 - x66x332x2 - x184x332x2 - x89x332x2 = 0
1y332 - x28x332x3 - x147x332x3 - x148x332x3 - x75x332x3 - x153x332x3 - x18x332x3 - x302x332x3 - x139x332x3 - x131x332x3 - x198x332x3 - x233x332x3 = 0

s144 - s88 + 7.942715z144z88z2 <= 6.69
s144 - s163 + 7.961212z144z163z2 <= 6.69
s144 - s43 + 7.951492z144z43z2 <= 6.69
s144 - s300 + 8.286816z144z300z2 <= 6.69
s144 - s213 + 8.250797z144z213z2 <= 6.69
s144 - s56 + 8.236173z144z56z2 <= 6.69
s144 - s66 + 8.334009z144z66z2 <= 6.69
s144 - s184 + 8.330035z144z184z2 <= 6.69
s144 - s89 + 8.357553z144z89z2 <= 6.69
s144 - s221 + 8.215565z144z221z2 <= 6.69
s144 - s39 + 8.322294z144z39z2 <= 6.69
s144 - s339 + 7.944025z144z339z2 <= 6.69
s144 - s106 + 8.255680z144z106z2 <= 6.69
s144 - s332 + 8.395963z144z332z2 <= 6.69
s200 - s88 + 8.018534z200z88z2 <= 6.76
s200 - s163 + 8.037102z200z163z2 <= 6.76
s200 - s43 + 8.027276z200z43z2 <= 6.76
s200 - s213 + 8.327119z200z213z1 <= 6.76
s200 - s213 + 8.327119z200z213z2 <= 6.76
s200 - s131 + 8.245383z200z131z1 <= 6.76
s200 - s198 + 8.298904z200z198z1 <= 6.76
s200 - s56 + 8.312510z200z56z1 <= 6.76
s200 - s56 + 8.312510z200z56z2 <= 6.76
s200 - s2 + 8.366993z200z2z1 <= 6.76
s200 - s221 + 8.291909z200z221z2 <= 6.76
s200 - s239 + 8.389653z200z239z1 <= 6.76
s200 - s39 + 8.397735z200z39z2 <= 6.76
s200 - s237 + 8.376236z200z237z1 <= 6.76
s200 - s339 + 8.019302z200z339z2 <= 6.76
s200 - s150 + 8.305567z200z150z1 <= 6.76
s200 - s106 + 8.332023z200z106z2 <= 6.76
s200 - s332 + 8.472241z200z332z2 <= 6.76
s32 - s34 + 8.016576z32z34z2 <= 6.56
s32 - s88 + 7.822846z32z88z2 <= 6.56
s32 - s302 + 8.037395z32z302z2 <= 6.56
s32 - s163 + 7.832950z32z163z2 <= 6.56
s32 - s43 + 7.831900z32z43z2 <= 6.56
s32 - s300 + 7.999415z32z300z2 <= 6.56
s32 - s213 + 8.018892z32z213z2 <= 6.56
s32 - s56 + 8.010094z32z56z2 <= 6.56
s32 - s66 + 8.058592z32z66z2 <= 6.56
s32 - s184 + 8.050953z32z184z2 <= 6.56
s32 - s89 + 8.086878z32z89z2 <= 6.56
s32 - s221 + 8.000068z32z221z2 <= 6.56
s32 - s39 + 8.035308z32z39z2 <= 6.56
s32 - s339 + 7.850759z32z339z2 <= 6.56
s32 - s106 + 8.040165z32z106z2 <= 6.56
s32 - s332 + 8.151618z32z332z2 <= 6.56
s28 - s75 + 7.894956z28z75z3 <= 6.72
s28 - s153 + 8.116560z28z153z3 <= 6.72
s28 - s88 + 7.903186z28z88z3 <= 6.72
s28 - s18 + 8.076437z28z18z3 <= 6.72
s28 - s302 + 8.137088z28z302z3 <= 6.72
s28 - s43 + 7.911523z28z43z3 <= 6.72
s28 - s139 + 8.060704z28z139z3 <= 6.72
s28 - s131 + 8.029634z28z131z3 <= 6.72
s28 - s198 + 8.073842z28z198z3 <= 6.72
s28 - s233 + 8.056755z28z233z3 <= 6.72
s28 - s2 + 8.124786z28z2z3 <= 6.72
s28 - s339 + 7.937962z28z339z3 <= 6.72
s28 - s106 + 8.113222z28z106z3 <= 6.72
s28 - s332 + 8.235835z28z332z3 <= 6.72
s147 - s221 + 8.431728z147z221z2 <= 7.11
s147 - s339 + 8.337938z147z339z2 <= 7.11
s147 - s339 + 8.337938z147z339z3 <= 7.11
s147 - s106 + 8.471974z147z106z2 <= 7.11
s147 - s106 + 8.471974z147z106z3 <= 7.11
s147 - s332 + 8.591358z147z332z2 <= 7.11
s147 - s332 + 8.591358z147z332z3 <= 7.11
s177 - s339 + 8.325389z177z339z3 <= 7.14
s177 - s150 + 8.501816z177z150z1 <= 7.14
s177 - s106 + 8.527148z177z106z3 <= 7.14
s67 - s106 + 8.592473z67z106z3 <= 7.31
s317 - s300 + 8.286737z317z300z2 <= 7.04
s317 - s213 + 8.279518z317z213z2 <= 7.04
s317 - s56 + 8.275362z317z56z2 <= 7.04
s317 - s66 + 8.323204z317z66z2 <= 7.04
s317 - s184 + 8.320476z317z184z2 <= 7.04
s317 - s89 + 8.346759z317z89z2 <= 7.04
s317 - s221 + 8.275548z317z221z2 <= 7.04
s317 - s39 + 8.320318z317z39z2 <= 7.04
s317 - s339 + 8.335363z317z339z2 <= 7.04
s317 - s106 + 8.312449z317z106z2 <= 7.04
s317 - s332 + 8.405026z317z332z2 <= 7.04
s148 - s237 + 8.488698z148z237z1 <= 7.24
s148 - s150 + 8.485521z148z150z1 <= 7.24
s148 - s106 + 8.501944z148z106z3 <= 7.24
s148 - s332 + 8.585071z148z332z3 <= 7.24
s92 - s106 + 8.599145z92z106z3 <= 7.34
s75 - s88 + 9.158856z75z88z3 <= 8.14
s75 - s43 + 9.161082z75z43z3 <= 8.14
s75 - s339 + 9.202893z75z339z3 <= 8.14
s75 - s106 + 9.468296z75z106z3 <= 8.14
s75 - s332 + 9.630261z75z332z3 <= 8.14
s15 - s224 + 9.178856z15z224z1 <= 8.16
s15 - s83 + 9.186666z15z83z1 <= 8.16
s15 - s213 + 9.300159z15z213z1 <= 8.16
s15 - s198 + 9.329967z15z198z1 <= 8.16
s15 - s56 + 9.321245z15z56z1 <= 8.16
s15 - s2 + 9.312315z15z2z1 <= 8.16
s15 - s184 + 9.247686z15z184z1 <= 8.16
s15 - s239 + 9.303913z15z239z1 <= 8.16
s15 - s237 + 9.339505z15z237z1 <= 8.16
s15 - s150 + 9.368380z15z150z1 <= 8.16
s34 - s302 + 9.181082z34z302z2 <= 8.16
s34 - s300 + 9.270353z34z300z2 <= 8.16
s34 - s213 + 9.320000z34z213z2 <= 8.16
s34 - s56 + 9.340493z34z56z2 <= 8.16
s34 - s66 + 9.217349z34z66z2 <= 8.16
s34 - s184 + 9.229602z34z184z2 <= 8.16
s34 - s89 + 9.231802z34z89z2 <= 8.16
s34 - s221 + 9.375921z34z221z2 <= 8.16
s34 - s39 + 9.274115z34z39z2 <= 8.16
s34 - s106 + 9.380101z34z106z2 <= 8.16
s34 - s332 + 9.336005z34z332z2 <= 8.16
s153 - s302 + 9.209814z153z302z3 <= 8.18
s153 - s2 + 9.290354z153z2z3 <= 8.18
s153 - s106 + 9.420370z153z106z3 <= 8.18
s153 - s332 + 9.373793z153z332z3 <= 8.18
s185 - s18 + 9.209428z185z18z1 <= 8.20
s185 - s213 + 9.229815z185z213z1 <= 8.20
s185 - s131 + 9.290676z185z131z1 <= 8.20
s185 - s198 + 9.240000z185z198z1 <= 8.20
s185 - s56 + 9.235901z185z56z1 <= 8.20
s185 - s239 + 9.466666z185z239z1 <= 8.20
s185 - s237 + 9.495221z185z237z1 <= 8.20
s185 - s150 + 9.280277z185z150z1 <= 8.20
s88 - s163 + 9.230000z88z163z2 <= 8.21
s88 - s43 + 9.219428z88z43z2 <= 8.21
s88 - s43 + 9.219428z88z43z3 <= 8.21
s88 - s339 + 9.254722z88z339z2 <= 8.21
s88 - s339 + 9.254722z88z339z3 <= 8.21
s88 - s106 + 9.554416z88z106z2 <= 8.21
s88 - s106 + 9.554416z88z106z3 <= 8.21
s224 - s83 + 9.238856z224z83z1 <= 8.22
s224 - s2 + 9.366364z224z2z1 <= 8.22
s224 - s184 + 9.293334z224z184z1 <= 8.22
s224 - s239 + 9.354990z224z239z1 <= 8.22
s224 - s237 + 9.392948z224z237z1 <= 8.22
s224 - s150 + 9.443607z224z150z1 <= 8.22
s18 - s139 + 9.278872z18z139z3 <= 8.24
s18 - s213 + 9.261082z18z213z1 <= 8.24
s18 - s131 + 9.329691z18z131z1 <= 8.24
s18 - s131 + 9.329691z18z131z3 <= 8.24
s18 - s198 + 9.273993z18z198z1 <= 8.24
s18 - s198 + 9.273993z18z198z3 <= 8.24
s18 - s233 + 9.293748z18z233z3 <= 8.24
s18 - s56 + 9.267488z18z56z1 <= 8.24
s18 - s150 + 9.313334z18z150z1 <= 8.24
s18 - s106 + 9.311802z18z106z3 <= 8.24
s18 - s332 + 9.406667z18z332z3 <= 8.24
s302 - s66 + 9.282164z302z66z2 <= 8.24
s302 - s2 + 9.374990z302z2z3 <= 8.24
s302 - s184 + 9.299999z302z184z2 <= 8.24
s302 - s89 + 9.290771z302z89z2 <= 8.24
s302 - s39 + 9.351753z302z39z2 <= 8.24
s302 - s106 + 9.467058z302z106z2 <= 8.24
s302 - s106 + 9.467058z302z106z3 <= 8.24
s302 - s332 + 9.405059z302z332z2 <= 8.24
s302 - s332 + 9.405059z302z332z3 <= 8.24
s83 - s184 + 9.337687z83z184z1 <= 8.25
s83 - s239 + 9.402315z83z239z1 <= 8.25
s83 - s237 + 9.441021z83z237z1 <= 8.25
s83 - s150 + 9.463437z83z150z1 <= 8.25
s163 - s43 + 9.284907z163z43z2 <= 8.27
s163 - s339 + 9.326569z163z339z2 <= 8.27
s163 - s106 + 9.595098z163z106z2 <= 8.27
s43 - s339 + 9.332687z43z339z2 <= 8.29
s43 - s339 + 9.332687z43z339z3 <= 8.29
s139 - s198 + 9.323334z139z198z3 <= 8.31
s139 - s233 + 9.324907z139z233z3 <= 8.31
s139 - s106 + 9.367350z139z106z3 <= 8.31
s139 - s332 + 9.506977z139z332z3 <= 8.31
s300 - s39 + 9.355901z300z39z2 <= 8.32
s300 - s332 + 9.598488z300z332z2 <= 8.32
s213 - s56 + 9.354037z213z56z1 <= 8.33
s213 - s56 + 9.354037z213z56z2 <= 8.33
s213 - s221 + 9.392893z213z221z2 <= 8.33
s213 - s150 + 9.399602z213z150z1 <= 8.33
s213 - s106 + 9.390369z213z106z2 <= 8.33
s213 - s332 + 9.479815z213z332z2 <= 8.33
s131 - s150 + 9.400370z131z150z1 <= 8.34
s131 - s106 + 9.426667z131z106z3 <= 8.34
s131 - s332 + 9.587477z131z332z3 <= 8.34
s198 - s150 + 9.390553z198z150z1 <= 8.35
s198 - s106 + 9.397141z198z106z3 <= 8.35
s198 - s332 + 9.534873z198z332z3 <= 8.35
s233 - s106 + 9.406960z233z106z3 <= 8.35
s233 - s332 + 9.558701z233z332z3 <= 8.35
s56 - s221 + 9.398872z56z221z2 <= 8.36
s56 - s150 + 9.407140z56z150z1 <= 8.36
s56 - s106 + 9.404721z56z106z2 <= 8.36
s56 - s332 + 9.529967z56z332z2 <= 8.36
s66 - s89 + 9.408873z66z89z2 <= 8.37
s66 - s39 + 9.451377z66z39z2 <= 8.37
s66 - s332 + 9.556786z66z332z2 <= 8.37
s2 - s239 + 9.416667z2z239z1 <= 8.39
s2 - s237 + 9.417488z2z237z1 <= 8.39
s184 - s239 + 9.460868z184z239z1 <= 8.39
s184 - s39 + 9.447350z184z39z2 <= 8.39
s184 - s237 + 9.503138z184z237z1 <= 8.39
s184 - s332 + 9.600819z184z332z2 <= 8.39
s89 - s332 + 9.582170z89z332z2 <= 8.43
s221 - s106 + 9.490552z221z106z2 <= 8.45
s239 - s237 + 9.512688z239z237z1 <= 8.47

x144x88x2 - 1z144z88z2 <= 0
x144x163x2 - 2z144z163z2 <= 0
x144x43x2 - 1z144z43z2 <= 0
x144x300x2 - 2z144z300z2 <= 0
x144x213x2 - 1z144z213z2 <= 0
x144x56x2 - 1z144z56z2 <= 0
x144x66x2 - 2z144z66z2 <= 0
x144x184x2 - 1z144z184z2 <= 0
x144x89x2 - 2z144z89z2 <= 0
x144x221x2 - 2z144z221z2 <= 0
x144x39x2 - 2z144z39z2 <= 0
x144x339x2 - 1z144z339z2 <= 0
x144x106x2 - 1z144z106z2 <= 0
x144x332x2 - 1z144z332z2 <= 0
x200x88x2 - 1z200z88z2 <= 0
x200x163x2 - 2z200z163z2 <= 0
x200x43x2 - 1z200z43z2 <= 0
x200x213x1 - 1z200z213z1 <= 0
x200x213x2 - 1z200z213z2 <= 0
x200x131x1 - 1z200z131z1 <= 0
x200x198x1 - 1z200z198z1 <= 0
x200x56x1 - 1z200z56z1 <= 0
x200x56x2 - 1z200z56z2 <= 0
x200x2x1 - 1z200z2z1 <= 0
x200x221x2 - 2z200z221z2 <= 0
x200x239x1 - 2z200z239z1 <= 0
x200x39x2 - 2z200z39z2 <= 0
x200x237x1 - 2z200z237z1 <= 0
x200x339x2 - 1z200z339z2 <= 0
x200x150x1 - 2z200z150z1 <= 0
x200x106x2 - 1z200z106z2 <= 0
x200x332x2 - 1z200z332z2 <= 0
x32x34x2 - 2z32z34z2 <= 0
x32x88x2 - 1z32z88z2 <= 0
x32x302x2 - 1z32z302z2 <= 0
x32x163x2 - 2z32z163z2 <= 0
x32x43x2 - 1z32z43z2 <= 0
x32x300x2 - 2z32z300z2 <= 0
x32x213x2 - 1z32z213z2 <= 0
x32x56x2 - 1z32z56z2 <= 0
x32x66x2 - 2z32z66z2 <= 0
x32x184x2 - 1z32z184z2 <= 0
x32x89x2 - 2z32z89z2 <= 0
x32x221x2 - 2z32z221z2 <= 0
x32x39x2 - 2z32z39z2 <= 0
x32x339x2 - 1z32z339z2 <= 0
x32x106x2 - 1z32z106z2 <= 0
x32x332x2 - 1z32z332z2 <= 0
x28x75x3 - 2z28z75z3 <= 0
x28x153x3 - 2z28z153z3 <= 0
x28x88x3 - 1z28z88z3 <= 0
x28x18x3 - 1z28z18z3 <= 0
x28x302x3 - 1z28z302z3 <= 0
x28x43x3 - 1z28z43z3 <= 0
x28x139x3 - 2z28z139z3 <= 0
x28x131x3 - 1z28z131z3 <= 0
x28x198x3 - 1z28z198z3 <= 0
x28x233x3 - 2z28z233z3 <= 0
x28x2x3 - 1z28z2z3 <= 0
x28x339x3 - 1z28z339z3 <= 0
x28x106x3 - 1z28z106z3 <= 0
x28x332x3 - 1z28z332z3 <= 0
x147x221x2 - 2z147z221z2 <= 0
x147x339x2 - 1z147z339z2 <= 0
x147x339x3 - 1z147z339z3 <= 0
x147x106x2 - 1z147z106z2 <= 0
x147x106x3 - 1z147z106z3 <= 0
x147x332x2 - 1z147z332z2 <= 0
x147x332x3 - 1z147z332z3 <= 0
x177x339x3 - 1z177z339z3 <= 0
x177x150x1 - 2z177z150z1 <= 0
x177x106x3 - 1z177z106z3 <= 0
x67x106x3 - 1z67z106z3 <= 0
x317x300x2 - 2z317z300z2 <= 0
x317x213x2 - 1z317z213z2 <= 0
x317x56x2 - 1z317z56z2 <= 0
x317x66x2 - 2z317z66z2 <= 0
x317x184x2 - 1z317z184z2 <= 0
x317x89x2 - 2z317z89z2 <= 0
x317x221x2 - 2z317z221z2 <= 0
x317x39x2 - 2z317z39z2 <= 0
x317x339x2 - 1z317z339z2 <= 0
x317x106x2 - 1z317z106z2 <= 0
x317x332x2 - 1z317z332z2 <= 0
x148x237x1 - 2z148z237z1 <= 0
x148x150x1 - 2z148z150z1 <= 0
x148x106x3 - 1z148z106z3 <= 0
x148x332x3 - 1z148z332z3 <= 0
x92x106x3 - 1z92z106z3 <= 0
x75x88x3 - 1z75z88z3 <= 0
x75x43x3 - 1z75z43z3 <= 0
x75x339x3 - 1z75z339z3 <= 0
x75x106x3 - 1z75z106z3 <= 0
x75x332x3 - 1z75z332z3 <= 0
x75x0x3 <= 2
x15x224x1 - 2z15z224z1 <= 0
x15x83x1 - 2z15z83z1 <= 0
x15x213x1 - 1z15z213z1 <= 0
x15x198x1 - 1z15z198z1 <= 0
x15x56x1 - 1z15z56z1 <= 0
x15x2x1 - 1z15z2z1 <= 0
x15x184x1 - 1z15z184z1 <= 0
x15x239x1 - 2z15z239z1 <= 0
x15x237x1 - 2z15z237z1 <= 0
x15x150x1 - 2z15z150z1 <= 0
x15x0x1 <= 2
x34x302x2 - 1z34z302z2 <= 0
x34x300x2 - 2z34z300z2 <= 0
x34x213x2 - 1z34z213z2 <= 0
x34x56x2 - 1z34z56z2 <= 0
x34x66x2 - 2z34z66z2 <= 0
x34x184x2 - 1z34z184z2 <= 0
x34x89x2 - 2z34z89z2 <= 0
x34x221x2 - 2z34z221z2 <= 0
x34x39x2 - 2z34z39z2 <= 0
x34x106x2 - 1z34z106z2 <= 0
x34x332x2 - 1z34z332z2 <= 0
x34x0x2 <= 2
x153x302x3 - 1z153z302z3 <= 0
x153x2x3 - 1z153z2z3 <= 0
x153x106x3 - 1z153z106z3 <= 0
x153x332x3 - 1z153z332z3 <= 0
x153x0x3 <= 2
x185x18x1 - 1z185z18z1 <= 0
x185x213x1 - 1z185z213z1 <= 0
x185x131x1 - 1z185z131z1 <= 0
x185x198x1 - 1z185z198z1 <= 0
x185x56x1 - 1z185z56z1 <= 0
x185x239x1 - 2z185z239z1 <= 0
x185x237x1 - 2z185z237z1 <= 0
x185x150x1 - 2z185z150z1 <= 0
x185x0x1 <= 2
x88x163x2 - 2z88z163z2 <= 0
x88x43x2 - 1z88z43z2 <= 0
x88x43x3 - 1z88z43z3 <= 0
x88x339x2 - 1z88z339z2 <= 0
x88x339x3 - 1z88z339z3 <= 0
x88x106x2 - 1z88z106z2 <= 0
x88x106x3 - 1z88z106z3 <= 0
x88x0x2 <= 1
x88x0x3 <= 1
x224x83x1 - 2z224z83z1 <= 0
x224x2x1 - 1z224z2z1 <= 0
x224x184x1 - 1z224z184z1 <= 0
x224x239x1 - 2z224z239z1 <= 0
x224x237x1 - 2z224z237z1 <= 0
x224x150x1 - 2z224z150z1 <= 0
x224x0x1 <= 2
x18x139x3 - 2z18z139z3 <= 0
x18x213x1 - 1z18z213z1 <= 0
x18x131x1 - 1z18z131z1 <= 0
x18x131x3 - 1z18z131z3 <= 0
x18x198x1 - 1z18z198z1 <= 0
x18x198x3 - 1z18z198z3 <= 0
x18x233x3 - 2z18z233z3 <= 0
x18x56x1 - 1z18z56z1 <= 0
x18x150x1 - 2z18z150z1 <= 0
x18x106x3 - 1z18z106z3 <= 0
x18x332x3 - 1z18z332z3 <= 0
x18x0x1 <= 1
x18x0x3 <= 1
x302x66x2 - 2z302z66z2 <= 0
x302x2x3 - 1z302z2z3 <= 0
x302x184x2 - 1z302z184z2 <= 0
x302x89x2 - 2z302z89z2 <= 0
x302x39x2 - 2z302z39z2 <= 0
x302x106x2 - 1z302z106z2 <= 0
x302x106x3 - 1z302z106z3 <= 0
x302x332x2 - 1z302z332z2 <= 0
x302x332x3 - 1z302z332z3 <= 0
x302x0x2 <= 1
x302x0x3 <= 1
x83x184x1 - 1z83z184z1 <= 0
x83x239x1 - 2z83z239z1 <= 0
x83x237x1 - 2z83z237z1 <= 0
x83x150x1 - 2z83z150z1 <= 0
x83x0x1 <= 2
x163x43x2 - 1z163z43z2 <= 0
x163x339x2 - 1z163z339z2 <= 0
x163x106x2 - 1z163z106z2 <= 0
x163x0x2 <= 2
x43x339x2 - 1z43z339z2 <= 0
x43x339x3 - 1z43z339z3 <= 0
x43x0x2 <= 1
x43x0x3 <= 1
x139x198x3 - 1z139z198z3 <= 0
x139x233x3 - 2z139z233z3 <= 0
x139x106x3 - 1z139z106z3 <= 0
x139x332x3 - 1z139z332z3 <= 0
x139x0x3 <= 2
x300x39x2 - 2z300z39z2 <= 0
x300x332x2 - 1z300z332z2 <= 0
x300x0x2 <= 2
x213x56x1 - 1z213z56z1 <= 0
x213x56x2 - 1z213z56z2 <= 0
x213x221x2 - 2z213z221z2 <= 0
x213x150x1 - 2z213z150z1 <= 0
x213x106x2 - 1z213z106z2 <= 0
x213x332x2 - 1z213z332z2 <= 0
x213x0x1 <= 1
x213x0x2 <= 1
x131x150x1 - 2z131z150z1 <= 0
x131x106x3 - 1z131z106z3 <= 0
x131x332x3 - 1z131z332z3 <= 0
x131x0x1 <= 1
x131x0x3 <= 1
x198x150x1 - 2z198z150z1 <= 0
x198x106x3 - 1z198z106z3 <= 0
x198x332x3 - 1z198z332z3 <= 0
x198x0x1 <= 1
x198x0x3 <= 1
x233x106x3 - 1z233z106z3 <= 0
x233x332x3 - 1z233z332z3 <= 0
x233x0x3 <= 2
x56x221x2 - 2z56z221z2 <= 0
x56x150x1 - 2z56z150z1 <= 0
x56x106x2 - 1z56z106z2 <= 0
x56x332x2 - 1z56z332z2 <= 0
x56x0x1 <= 1
x56x0x2 <= 1
x66x89x2 - 2z66z89z2 <= 0
x66x39x2 - 2z66z39z2 <= 0
x66x332x2 - 1z66z332z2 <= 0
x66x0x2 <= 2
x2x239x1 - 2z2z239z1 <= 0
x2x237x1 - 2z2z237z1 <= 0
x2x0x1 <= 1
x2x0x3 <= 1
x184x239x1 - 2z184z239z1 <= 0
x184x39x2 - 2z184z39z2 <= 0
x184x237x1 - 2z184z237z1 <= 0
x184x332x2 - 1z184z332z2 <= 0
x184x0x1 <= 1
x184x0x2 <= 1
x89x332x2 - 1z89z332z2 <= 0
x89x0x2 <= 2
x221x106x2 - 1z221z106z2 <= 0
x221x0x2 <= 2
x239x237x1 - 2z239z237z1 <= 0
x239x0x1 <= 2
x39x0x2 <= 2
x237x0x1 <= 2
x339x0x2 <= 1
x339x0x3 <= 1
x150x0x1 <= 2
x106x0x2 <= 1
x106x0x3 <= 1
x332x0x2 <= 1
x332x0x3 <= 1

s75 - 6.00z28z75z3 >= 0
s34 - 6.00z32z34z2 >= 0
s153 - 6.00z28z153z3 >= 0
s88 - 6.00z144z88z2 >= 0
s88 - 6.00z200z88z2 >= 0
s88 - 6.00z32z88z2 >= 0
s88 - 6.00z28z88z3 >= 0
s88 - 6.00z75z88z3 >= 0
s224 - 6.00z15z224z1 >= 0
s18 - 6.00z28z18z3 >= 0
s18 - 6.00z185z18z1 >= 0
s302 - 6.00z32z302z2 >= 0
s302 - 6.00z28z302z3 >= 0
s302 - 6.00z34z302z2 >= 0
s302 - 6.00z153z302z3 >= 0
s83 - 6.00z15z83z1 >= 0
s83 - 6.00z224z83z1 >= 0
s163 - 6.00z144z163z2 >= 0
s163 - 6.00z200z163z2 >= 0
s163 - 6.00z32z163z2 >= 0
s163 - 6.00z88z163z2 >= 0
s43 - 6.00z144z43z2 >= 0
s43 - 6.00z200z43z2 >= 0
s43 - 6.00z32z43z2 >= 0
s43 - 6.00z28z43z3 >= 0
s43 - 6.00z75z43z3 >= 0
s43 - 6.00z88z43z2 >= 0
s43 - 6.00z88z43z3 >= 0
s43 - 6.00z163z43z2 >= 0
s139 - 6.00z28z139z3 >= 0
s139 - 6.00z18z139z3 >= 0
s300 - 6.00z144z300z2 >= 0
s300 - 6.00z32z300z2 >= 0
s300 - 6.00z317z300z2 >= 0
s300 - 6.00z34z300z2 >= 0
s213 - 6.00z144z213z2 >= 0
s213 - 6.00z200z213z1 >= 0
s213 - 6.00z200z213z2 >= 0
s213 - 6.00z32z213z2 >= 0
s213 - 6.00z317z213z2 >= 0
s213 - 6.00z15z213z1 >= 0
s213 - 6.00z34z213z2 >= 0
s213 - 6.00z185z213z1 >= 0
s213 - 6.00z18z213z1 >= 0
s131 - 6.00z200z131z1 >= 0
s131 - 6.00z28z131z3 >= 0
s131 - 6.00z185z131z1 >= 0
s131 - 6.00z18z131z1 >= 0
s131 - 6.00z18z131z3 >= 0
s198 - 6.00z200z198z1 >= 0
s198 - 6.00z28z198z3 >= 0
s198 - 6.00z15z198z1 >= 0
s198 - 6.00z185z198z1 >= 0
s198 - 6.00z18z198z1 >= 0
s198 - 6.00z18z198z3 >= 0
s198 - 6.00z139z198z3 >= 0
s233 - 6.00z28z233z3 >= 0
s233 - 6.00z18z233z3 >= 0
s233 - 6.00z139z233z3 >= 0
s56 - 6.00z144z56z2 >= 0
s56 - 6.00z200z56z1 >= 0
s56 - 6.00z200z56z2 >= 0
s56 - 6.00z32z56z2 >= 0
s56 - 6.00z317z56z2 >= 0
s56 - 6.00z15z56z1 >= 0
s56 - 6.00z34z56z2 >= 0
s56 - 6.00z185z56z1 >= 0
s56 - 6.00z18z56z1 >= 0
s56 - 6.00z213z56z1 >= 0
s56 - 6.00z213z56z2 >= 0
s66 - 6.00z144z66z2 >= 0
s66 - 6.00z32z66z2 >= 0
s66 - 6.00z317z66z2 >= 0
s66 - 6.00z34z66z2 >= 0
s66 - 6.00z302z66z2 >= 0
s2 - 6.00z200z2z1 >= 0
s2 - 6.00z28z2z3 >= 0
s2 - 6.00z15z2z1 >= 0
s2 - 6.00z153z2z3 >= 0
s2 - 6.00z224z2z1 >= 0
s2 - 6.00z302z2z3 >= 0
s184 - 6.00z144z184z2 >= 0
s184 - 6.00z32z184z2 >= 0
s184 - 6.00z317z184z2 >= 0
s184 - 6.00z15z184z1 >= 0
s184 - 6.00z34z184z2 >= 0
s184 - 6.00z224z184z1 >= 0
s184 - 6.00z302z184z2 >= 0
s184 - 6.00z83z184z1 >= 0
s89 - 6.00z144z89z2 >= 0
s89 - 6.00z32z89z2 >= 0
s89 - 6.00z317z89z2 >= 0
s89 - 6.00z34z89z2 >= 0
s89 - 6.00z302z89z2 >= 0
s89 - 6.00z66z89z2 >= 0
s221 - 6.00z144z221z2 >= 0
s221 - 6.00z200z221z2 >= 0
s221 - 6.00z32z221z2 >= 0
s221 - 6.00z147z221z2 >= 0
s221 - 6.00z317z221z2 >= 0
s221 - 6.00z34z221z2 >= 0
s221 - 6.00z213z221z2 >= 0
s221 - 6.00z56z221z2 >= 0
s239 - 6.00z200z239z1 >= 0
s239 - 6.00z15z239z1 >= 0
s239 - 6.00z185z239z1 >= 0
s239 - 6.00z224z239z1 >= 0
s239 - 6.00z83z239z1 >= 0
s239 - 6.00z2z239z1 >= 0
s239 - 6.00z184z239z1 >= 0
s39 - 6.00z144z39z2 >= 0
s39 - 6.00z200z39z2 >= 0
s39 - 6.00z32z39z2 >= 0
s39 - 6.00z317z39z2 >= 0
s39 - 6.00z34z39z2 >= 0
s39 - 6.00z302z39z2 >= 0
s39 - 6.00z300z39z2 >= 0
s39 - 6.00z66z39z2 >= 0
s39 - 6.00z184z39z2 >= 0
s237 - 6.00z200z237z1 >= 0
s237 - 6.00z148z237z1 >= 0
s237 - 6.00z15z237z1 >= 0
s237 - 6.00z185z237z1 >= 0
s237 - 6.00z224z237z1 >= 0
s237 - 6.00z83z237z1 >= 0
s237 - 6.00z2z237z1 >= 0
s237 - 6.00z184z237z1 >= 0
s237 - 6.00z239z237z1 >= 0
s339 - 6.00z144z339z2 >= 0
s339 - 6.00z200z339z2 >= 0
s339 - 6.00z32z339z2 >= 0
s339 - 6.00z28z339z3 >= 0
s339 - 6.00z147z339z2 >= 0
s339 - 6.00z147z339z3 >= 0
s339 - 6.00z177z339z3 >= 0
s339 - 6.00z317z339z2 >= 0
s339 - 6.00z75z339z3 >= 0
s339 - 6.00z88z339z2 >= 0
s339 - 6.00z88z339z3 >= 0
s339 - 6.00z163z339z2 >= 0
s339 - 6.00z43z339z2 >= 0
s339 - 6.00z43z339z3 >= 0
s150 - 6.00z200z150z1 >= 0
s150 - 6.00z177z150z1 >= 0
s150 - 6.00z148z150z1 >= 0
s150 - 6.00z15z150z1 >= 0
s150 - 6.00z185z150z1 >= 0
s150 - 6.00z224z150z1 >= 0
s150 - 6.00z18z150z1 >= 0
s150 - 6.00z83z150z1 >= 0
s150 - 6.00z213z150z1 >= 0
s150 - 6.00z131z150z1 >= 0
s150 - 6.00z198z150z1 >= 0
s150 - 6.00z56z150z1 >= 0
s106 - 6.00z144z106z2 >= 0
s106 - 6.00z200z106z2 >= 0
s106 - 6.00z32z106z2 >= 0
s106 - 6.00z28z106z3 >= 0
s106 - 6.00z147z106z2 >= 0
s106 - 6.00z147z106z3 >= 0
s106 - 6.00z177z106z3 >= 0
s106 - 6.00z67z106z3 >= 0
s106 - 6.00z317z106z2 >= 0
s106 - 6.00z148z106z3 >= 0
s106 - 6.00z92z106z3 >= 0
s106 - 6.00z75z106z3 >= 0
s106 - 6.00z34z106z2 >= 0
s106 - 6.00z153z106z3 >= 0
s106 - 6.00z88z106z2 >= 0
s106 - 6.00z88z106z3 >= 0
s106 - 6.00z18z106z3 >= 0
s106 - 6.00z302z106z2 >= 0
s106 - 6.00z302z106z3 >= 0
s106 - 6.00z163z106z2 >= 0
s106 - 6.00z139z106z3 >= 0
s106 - 6.00z213z106z2 >= 0
s106 - 6.00z131z106z3 >= 0
s106 - 6.00z198z106z3 >= 0
s106 - 6.00z233z106z3 >= 0
s106 - 6.00z56z106z2 >= 0
s106 - 6.00z221z106z2 >= 0
s332 - 6.00z144z332z2 >= 0
s332 - 6.00z200z332z2 >= 0
s332 - 6.00z32z332z2 >= 0
s332 - 6.00z28z332z3 >= 0
s332 - 6.00z147z332z2 >= 0
s332 - 6.00z147z332z3 >= 0
s332 - 6.00z317z332z2 >= 0
s332 - 6.00z148z332z3 >= 0
s332 - 6.00z75z332z3 >= 0
s332 - 6.00z34z332z2 >= 0
s332 - 6.00z153z332z3 >= 0
s332 - 6.00z18z332z3 >= 0
s332 - 6.00z302z332z2 >= 0
s332 - 6.00z302z332z3 >= 0
s332 - 6.00z139z332z3 >= 0
s332 - 6.00z300z332z2 >= 0
s332 - 6.00z213z332z2 >= 0
s332 - 6.00z131z332z3 >= 0
s332 - 6.00z198z332z3 >= 0
s332 - 6.00z233z332z3 >= 0
s332 - 6.00z56z332z2 >= 0
s332 - 6.00z66z332z2 >= 0
s332 - 6.00z184z332z2 >= 0
s332 - 6.00z89z332z2 >= 0

Bounds
s144 = 6.688856
s200 = 6.758534
s32 = 6.557349
s28 = 6.715451
s147 = 7.111173
s177 = 7.143424
s67 = 7.308846
s317 = 7.036848
s148 = 7.235277
s92 = 7.341808
s196 = 7.729460
s29 = 7.808605
s298 = 7.927090
s318 = 7.896297
7.140000 <= s75 <= 8.140000
7.160000 <= s15 <= 8.160000
7.160000 <= s34 <= 8.160000
7.180000 <= s153 <= 8.180000
7.200000 <= s185 <= 8.200000
7.210000 <= s88 <= 8.210000
7.220000 <= s224 <= 8.220000
7.240000 <= s18 <= 8.240000
7.240000 <= s302 <= 8.240000
7.250000 <= s83 <= 8.250000
7.270000 <= s163 <= 8.270000
7.290000 <= s43 <= 8.290000
7.310000 <= s139 <= 8.310000
7.320000 <= s300 <= 8.320000
7.330000 <= s213 <= 8.330000
7.340000 <= s131 <= 8.340000
7.350000 <= s198 <= 8.350000
7.350000 <= s233 <= 8.350000
7.360000 <= s56 <= 8.360000
7.370000 <= s66 <= 8.370000
7.390000 <= s2 <= 8.390000
7.390000 <= s184 <= 8.390000
7.430000 <= s89 <= 8.430000
7.450000 <= s221 <= 8.450000
7.470000 <= s239 <= 8.470000
7.480000 <= s39 <= 8.480000
7.520000 <= s237 <= 8.520000
7.520000 <= s339 <= 8.520000
7.570000 <= s150 <= 8.570000
7.610000 <= s106 <= 8.610000
7.640000 <= s332 <= 8.640000

General
x144x88x2 x144x163x2 x144x43x2 x144x300x2 x144x213x2 x144x56x2 x144x66x2 x144x184x2 x144x89x2 x144x221x2 x144x39x2 x144x339x2 x144x106x2 x144x332x2 
x200x88x2 x200x163x2 x200x43x2 x200x213x1 x200x213x2 x200x131x1 x200x198x1 x200x56x1 x200x56x2 x200x2x1 x200x221x2 x200x239x1 x200x39x2 x200x237x1 x200x339x2 x200x150x1 x200x106x2 x200x332x2 
x32x34x2 x32x88x2 x32x302x2 x32x163x2 x32x43x2 x32x300x2 x32x213x2 x32x56x2 x32x66x2 x32x184x2 x32x89x2 x32x221x2 x32x39x2 x32x339x2 x32x106x2 x32x332x2 
x28x75x3 x28x153x3 x28x88x3 x28x18x3 x28x302x3 x28x43x3 x28x139x3 x28x131x3 x28x198x3 x28x233x3 x28x2x3 x28x339x3 x28x106x3 x28x332x3 
x147x221x2 x147x339x2 x147x339x3 x147x106x2 x147x106x3 x147x332x2 x147x332x3 
x177x339x3 x177x150x1 x177x106x3 
x67x106x3 
x317x300x2 x317x213x2 x317x56x2 x317x66x2 x317x184x2 x317x89x2 x317x221x2 x317x39x2 x317x339x2 x317x106x2 x317x332x2 
x148x237x1 x148x150x1 x148x106x3 x148x332x3 
x92x106x3 




x75x88x3 x75x43x3 x75x339x3 x75x106x3 x75x332x3 x75x0x3 
x15x224x1 x15x83x1 x15x213x1 x15x198x1 x15x56x1 x15x2x1 x15x184x1 x15x239x1 x15x237x1 x15x150x1 x15x0x1 
x34x302x2 x34x300x2 x34x213x2 x34x56x2 x34x66x2 x34x184x2 x34x89x2 x34x221x2 x34x39x2 x34x106x2 x34x332x2 x34x0x2 
x153x302x3 x153x2x3 x153x106x3 x153x332x3 x153x0x3 
x185x18x1 x185x213x1 x185x131x1 x185x198x1 x185x56x1 x185x239x1 x185x237x1 x185x150x1 x185x0x1 
x88x163x2 x88x43x2 x88x43x3 x88x339x2 x88x339x3 x88x106x2 x88x106x3 x88x0x2 x88x0x3 
x224x83x1 x224x2x1 x224x184x1 x224x239x1 x224x237x1 x224x150x1 x224x0x1 
x18x139x3 x18x213x1 x18x131x1 x18x131x3 x18x198x1 x18x198x3 x18x233x3 x18x56x1 x18x150x1 x18x106x3 x18x332x3 x18x0x1 x18x0x3 
x302x66x2 x302x2x3 x302x184x2 x302x89x2 x302x39x2 x302x106x2 x302x106x3 x302x332x2 x302x332x3 x302x0x2 x302x0x3 
x83x184x1 x83x239x1 x83x237x1 x83x150x1 x83x0x1 
x163x43x2 x163x339x2 x163x106x2 x163x0x2 
x43x339x2 x43x339x3 x43x0x2 x43x0x3 
x139x198x3 x139x233x3 x139x106x3 x139x332x3 x139x0x3 
x300x39x2 x300x332x2 x300x0x2 
x213x56x1 x213x56x2 x213x221x2 x213x150x1 x213x106x2 x213x332x2 x213x0x1 x213x0x2 
x131x150x1 x131x106x3 x131x332x3 x131x0x1 x131x0x3 
x198x150x1 x198x106x3 x198x332x3 x198x0x1 x198x0x3 
x233x106x3 x233x332x3 x233x0x3 
x56x221x2 x56x150x1 x56x106x2 x56x332x2 x56x0x1 x56x0x2 
x66x89x2 x66x39x2 x66x332x2 x66x0x2 
x2x239x1 x2x237x1 x2x0x1 x2x0x3 
x184x239x1 x184x39x2 x184x237x1 x184x332x2 x184x0x1 x184x0x2 
x89x332x2 x89x0x2 
x221x106x2 x221x0x2 
x239x237x1 x239x0x1 
x39x0x2 
x237x0x1 
x339x0x2 x339x0x3 
x150x0x1 
x106x0x2 x106x0x3 
x332x0x2 x332x0x3 

Binaries
y75 y15 y34 y153 y185 y88 y224 y18 y302 y83 y163 y43 y139 y300 y213 y131 y198 y233 y56 y66 y2 y184 y89 y221 y239 y39 y237 y339 y150 y106 y332 
z144z88z2 z144z163z2 z144z43z2 z144z300z2 z144z213z2 z144z56z2 z144z66z2 z144z184z2 z144z89z2 z144z221z2 z144z39z2 z144z339z2 z144z106z2 z144z332z2 
z200z88z2 z200z163z2 z200z43z2 z200z213z1 z200z213z2 z200z131z1 z200z198z1 z200z56z1 z200z56z2 z200z2z1 z200z221z2 z200z239z1 z200z39z2 z200z237z1 z200z339z2 z200z150z1 z200z106z2 z200z332z2 
z32z34z2 z32z88z2 z32z302z2 z32z163z2 z32z43z2 z32z300z2 z32z213z2 z32z56z2 z32z66z2 z32z184z2 z32z89z2 z32z221z2 z32z39z2 z32z339z2 z32z106z2 z32z332z2 
z28z75z3 z28z153z3 z28z88z3 z28z18z3 z28z302z3 z28z43z3 z28z139z3 z28z131z3 z28z198z3 z28z233z3 z28z2z3 z28z339z3 z28z106z3 z28z332z3 
z147z221z2 z147z339z2 z147z339z3 z147z106z2 z147z106z3 z147z332z2 z147z332z3 
z177z339z3 z177z150z1 z177z106z3 
z67z106z3 
z317z300z2 z317z213z2 z317z56z2 z317z66z2 z317z184z2 z317z89z2 z317z221z2 z317z39z2 z317z339z2 z317z106z2 z317z332z2 
z148z237z1 z148z150z1 z148z106z3 z148z332z3 
z92z106z3 




z75z88z3 z75z43z3 z75z339z3 z75z106z3 z75z332z3 
z15z224z1 z15z83z1 z15z213z1 z15z198z1 z15z56z1 z15z2z1 z15z184z1 z15z239z1 z15z237z1 z15z150z1 
z34z302z2 z34z300z2 z34z213z2 z34z56z2 z34z66z2 z34z184z2 z34z89z2 z34z221z2 z34z39z2 z34z106z2 z34z332z2 
z153z302z3 z153z2z3 z153z106z3 z153z332z3 
z185z18z1 z185z213z1 z185z131z1 z185z198z1 z185z56z1 z185z239z1 z185z237z1 z185z150z1 
z88z163z2 z88z43z2 z88z43z3 z88z339z2 z88z339z3 z88z106z2 z88z106z3 
z224z83z1 z224z2z1 z224z184z1 z224z239z1 z224z237z1 z224z150z1 
z18z139z3 z18z213z1 z18z131z1 z18z131z3 z18z198z1 z18z198z3 z18z233z3 z18z56z1 z18z150z1 z18z106z3 z18z332z3 
z302z66z2 z302z2z3 z302z184z2 z302z89z2 z302z39z2 z302z106z2 z302z106z3 z302z332z2 z302z332z3 
z83z184z1 z83z239z1 z83z237z1 z83z150z1 
z163z43z2 z163z339z2 z163z106z2 
z43z339z2 z43z339z3 
z139z198z3 z139z233z3 z139z106z3 z139z332z3 
z300z39z2 z300z332z2 
z213z56z1 z213z56z2 z213z221z2 z213z150z1 z213z106z2 z213z332z2 
z131z150z1 z131z106z3 z131z332z3 
z198z150z1 z198z106z3 z198z332z3 
z233z106z3 z233z332z3 
z56z221z2 z56z150z1 z56z106z2 z56z332z2 
z66z89z2 z66z39z2 z66z332z2 
z2z239z1 z2z237z1 
z184z239z1 z184z39z2 z184z237z1 z184z332z2 
z89z332z2 
z221z106z2 
z239z237z1 







End